Version identifier: 22.1.1.0 | 2022-11-28 | 9160aff4d
CPXPARAM_ClockType                               1
CPXPARAM_Read_DataCheck                          1
CPXPARAM_Threads                                 1
CPXPARAM_TimeLimit                               7200
CPXPARAM_MIP_Tolerances_AbsMIPGap                0
CPXPARAM_MIP_Tolerances_MIPGap                   0
CPXPARAM_MIP_Tolerances_Integrality              0
Tried aggregator 4 times.
MIP Presolve eliminated 934445 rows and 23603 columns.
MIP Presolve modified 1030 coefficients.
Aggregator did 10017 substitutions.
Reduced MIP has 41714 rows, 25105 columns, and 173533 nonzeros.
Reduced MIP has 25105 binaries, 0 generals, 0 SOSs, and 0 indicators.
Presolve time = 2.03 sec. (1222.94 ticks)
Probing time = 0.03 sec. (14.02 ticks)
Tried aggregator 1 time.
Detecting symmetries...
MIP Presolve eliminated 28 rows and 0 columns.
MIP Presolve modified 338 coefficients.
Reduced MIP has 41686 rows, 25105 columns, and 172998 nonzeros.
Reduced MIP has 25105 binaries, 0 generals, 0 SOSs, and 0 indicators.
Presolve time = 0.20 sec. (123.80 ticks)
Probing time = 0.02 sec. (13.43 ticks)
Clique table members: 59729.
MIP emphasis: balance optimality and feasibility.
MIP search method: dynamic search.
Parallel mode: none, using 1 thread.
Root relaxation solution time = 426.40 sec. (294944.03 ticks)

        Nodes                                         Cuts/
   Node  Left     Objective  IInf  Best Integer    Best Bound    ItCnt     Gap

      0     0     3884.0000  3984                   3884.0000   151618         
      0     0     3835.5000  4886                  Cuts: 5405   300229         
      0     0     3827.9167  5649                  Cuts: 1584   477622         
      0     0     3822.5000  6870                  Cuts: 1253   966985         
      0     0     3818.0000  7577                  Cuts: 1230  1528246         

Clique cuts applied:  1828
Implied bound cuts applied:  90
Zero-half cuts applied:  650
Gomory fractional cuts applied:  1

Root node processing (before b&c):
  Real time             = 7200.06 sec. (4216819.71 ticks)
Sequential b&c:
  Real time             =    0.00 sec. (0.00 ticks)
                          ------------
Total (root+branch&cut) = 7200.06 sec. (4216819.71 ticks)
Solution is infeasible.

---------------------
@@@ MIP_time_limit_infeasible
Traceback (most recent call last):
  File "/scratch/scherif/DiverseSAT-journal_sup/DiverseSAT_Supplementary_Experiments/experiment-1/cplex/jobs/../solvers/CPLEX-IW-SE.py", line 105, in <module>
    print(f">>> Benchmark {os.path.basename(cnf_file)} k {k} OPT {int(prob.solution.get_objective_value())}"
  File "/users/scherif/.local/lib/python3.9/site-packages/cplex/_internal/_subinterfaces.py", line 7211, in get_objective_value
    return CPX_PROC.getobjval(self._env._e, self._cplex._lp)
  File "/users/scherif/.local/lib/python3.9/site-packages/cplex/_internal/_procedural.py", line 2055, in getobjval
    check_status(env, status)
  File "/users/scherif/.local/lib/python3.9/site-packages/cplex/_internal/_procedural.py", line 249, in __call__
    raise CplexSolverError(error_string, env, status)
cplex.exceptions.errors.CplexSolverError: CPLEX Error  1217: No solution exists.
